

(assert (forall ((M Int) (N Int) (k Int))
  (=>
    (and
      (<= 0 k)
      (not (or (exists ((i_dot_0 Int)(j_0 Int)(j_1 Int)) (and (<= i_dot_0 (+ M (- 1))) (<= 0 i_dot_0) (<= j_1 (+ N (- 1))) (<= (+ k 2) j_1) (<= j_0 (+ N (- 1))) (<= (+ k 1) j_0) (= j_0 j_1))) (exists ((i_nrm_1 Int)) (and (<= i_nrm_1 (+ M (- 1))) (= k (+ k 1)) (<= 0 i_nrm_1))) (exists ((i_dot_0 Int)(i_sub_1 Int)(j_0 Int)(j_1 Int)) (and (<= i_dot_0 (+ M (- 1))) (<= i_sub_1 (+ M (- 1))) (<= 0 i_dot_0) (<= j_1 (+ N (- 1))) (<= (+ k 2) j_1) (= i_dot_0 i_sub_1) (<= j_0 (+ N (- 1))) (<= (+ k 1) j_0) (<= 0 i_sub_1) (= j_0 j_1))) (exists ((i_nrm_0 Int)) (and (<= i_nrm_0 (+ M (- 1))) (= k (+ k 1)) (<= 0 i_nrm_0))) (exists ((j_0 Int)) (and (<= j_0 (+ N (- 1))) (<= (+ k 1) j_0) (= k (+ k 1)) (= j_0 (+ k 1)))) (exists ((i_nrm_0 Int)(i_nrm_1 Int)) (and (= k (+ k 1)) (<= 0 i_nrm_1) (<= i_nrm_1 (+ M (- 1))) (<= 0 i_nrm_0) (<= i_nrm_0 (+ M (- 1))))) (exists ((i_q_1 Int)(j_0 Int)) (and (<= 0 i_q_1) (= k (+ k 1)) (= j_0 (+ k 1)) (<= j_0 (+ N (- 1))) (<= (+ k 1) j_0) (<= i_q_1 (+ M (- 1))))) (= k (+ k 1)) (exists ((j_0 Int)(j_1 Int)) (and (= k (+ k 1)) (<= j_1 (+ N (- 1))) (<= (+ k 2) j_1) (<= j_0 (+ N (- 1))) (<= (+ k 1) j_0) (= j_0 j_1))) (exists ((i_nrm_0 Int)(i_sub_1 Int)(j_1 Int)) (and (<= i_sub_1 (+ M (- 1))) (<= j_1 (+ N (- 1))) (<= (+ k 2) j_1) (<= 0 i_nrm_0) (<= i_nrm_0 (+ M (- 1))) (<= 0 i_sub_1) (= i_nrm_0 i_sub_1) (= k j_1))) (exists ((i_sub_0 Int)(j_0 Int)) (and (= k (+ k 1)) (= j_0 (+ k 1)) (<= i_sub_0 (+ M (- 1))) (<= j_0 (+ N (- 1))) (<= (+ k 1) j_0) (<= 0 i_sub_0))) (exists ((i_q_1 Int)) (and (<= 0 i_q_1) (= k (+ k 1)) (<= i_q_1 (+ M (- 1))))) (exists ((j_1 Int)) (and (<= (+ k 2) j_1) (= k (+ k 1)) (<= j_1 (+ N (- 1))) (= k j_1))) (exists ((i_q_1 Int)(i_sub_0 Int)(j_0 Int)) (and (<= 0 i_q_1) (<= i_sub_0 (+ M (- 1))) (<= j_0 (+ N (- 1))) (<= (+ k 1) j_0) (<= 0 i_sub_0) (<= i_q_1 (+ M (- 1))) (or (and (= i_sub_0 i_q_1) (= j_0 (+ k 1))) (and (= i_sub_0 i_q_1) (= k (+ k 1)))))) (exists ((i_sub_1 Int)(j_1 Int)) (and (<= i_sub_1 (+ M (- 1))) (= k (+ k 1)) (<= j_1 (+ N (- 1))) (<= (+ k 2) j_1) (<= 0 i_sub_1) (= k j_1))) (exists ((i_sub_0 Int)(j_0 Int)(j_1 Int)) (and (= k (+ k 1)) (<= j_1 (+ N (- 1))) (<= (+ k 2) j_1) (<= i_sub_0 (+ M (- 1))) (<= j_0 (+ N (- 1))) (<= (+ k 1) j_0) (<= 0 i_sub_0) (= j_0 j_1))) (exists ((i_q_0 Int)) (and (<= i_q_0 (+ M (- 1))) (= k (+ k 1)) (<= 0 i_q_0))) (exists ((i_dot_1 Int)(i_q_0 Int)(j_1 Int)) (and (= k (+ k 1)) (<= j_1 (+ N (- 1))) (<= 0 i_q_0) (<= i_q_0 (+ M (- 1))) (<= (+ k 2) j_1) (<= 0 i_dot_1) (= i_q_0 i_dot_1) (<= i_dot_1 (+ M (- 1))))) (exists ((i_sub_0 Int)(j_0 Int)(i_sub_1 Int)(j_1 Int)) (and (= i_sub_0 i_sub_1) (<= i_sub_1 (+ M (- 1))) (<= j_1 (+ N (- 1))) (<= (+ k 2) j_1) (<= i_sub_0 (+ M (- 1))) (<= j_0 (+ N (- 1))) (<= (+ k 1) j_0) (<= 0 i_sub_0) (<= 0 i_sub_1) (= j_0 j_1))) (exists ((i_sub_0 Int)(j_0 Int)(i_dot_1 Int)(j_1 Int)) (and (<= j_1 (+ N (- 1))) (<= (+ k 2) j_1) (<= i_sub_0 (+ M (- 1))) (<= j_0 (+ N (- 1))) (<= (+ k 1) j_0) (<= 0 i_sub_0) (<= 0 i_dot_1) (<= i_dot_1 (+ M (- 1))) (= i_sub_0 i_dot_1) (= j_0 j_1))) (exists ((i_sub_0 Int)(j_0 Int)(i_nrm_1 Int)) (and (<= 0 i_nrm_1) (<= i_nrm_1 (+ M (- 1))) (= j_0 (+ k 1)) (<= i_sub_0 (+ M (- 1))) (<= j_0 (+ N (- 1))) (<= (+ k 1) j_0) (<= 0 i_sub_0) (= i_sub_0 i_nrm_1))) (exists ((i_q_0 Int)(j_1 Int)) (and (= k (+ k 1)) (<= j_1 (+ N (- 1))) (<= 0 i_q_0) (<= i_q_0 (+ M (- 1))) (<= (+ k 2) j_1) (= k j_1))) (exists ((j_0 Int)(i_dot_1 Int)(j_1 Int)) (and (<= j_1 (+ N (- 1))) (<= (+ k 2) j_1) (<= 0 i_dot_1) (<= j_0 (+ N (- 1))) (<= (+ k 1) j_0) (<= i_dot_1 (+ M (- 1))) (= j_0 j_1))) (exists ((i_dot_0 Int)(j_0 Int)(i_dot_1 Int)(j_1 Int)) (and (<= i_dot_0 (+ M (- 1))) (<= 0 i_dot_0) (<= j_1 (+ N (- 1))) (<= (+ k 2) j_1) (<= 0 i_dot_1) (<= j_0 (+ N (- 1))) (<= (+ k 1) j_0) (<= i_dot_1 (+ M (- 1))) (= j_0 j_1))) (exists ((j_0 Int)(i_sub_1 Int)(j_1 Int)) (and (<= i_sub_1 (+ M (- 1))) (= k (+ k 1)) (<= j_1 (+ N (- 1))) (<= (+ k 2) j_1) (<= j_0 (+ N (- 1))) (<= (+ k 1) j_0) (<= 0 i_sub_1) (= j_0 j_1))) (exists ((i_q_1 Int)(i_dot_0 Int)(j_0 Int)) (and (<= 0 i_q_1) (<= i_dot_0 (+ M (- 1))) (<= 0 i_dot_0) (= k (+ k 1)) (= i_dot_0 i_q_1) (<= j_0 (+ N (- 1))) (<= (+ k 1) j_0) (<= i_q_1 (+ M (- 1))))) (exists ((i_sub_1 Int)(i_q_0 Int)(j_1 Int)) (and (<= i_sub_1 (+ M (- 1))) (<= j_1 (+ N (- 1))) (<= 0 i_q_0) (<= i_q_0 (+ M (- 1))) (<= (+ k 2) j_1) (or (and (= k j_1) (= i_q_0 i_sub_1)) (and (= k (+ k 1)) (= i_q_0 i_sub_1))) (<= 0 i_sub_1))) (exists ((i_q_1 Int)(i_q_0 Int)) (and (<= 0 i_q_1) (= k (+ k 1)) (<= 0 i_q_0) (<= i_q_0 (+ M (- 1))) (= i_q_0 i_q_1) (<= i_q_1 (+ M (- 1))))) (exists ((j_0 Int)(j_1 Int)) (and (<= j_1 (+ N (- 1))) (<= (+ k 2) j_1) (<= j_0 (+ N (- 1))) (<= (+ k 1) j_0) (= j_0 j_1)))))
      (<= 1 (+ M (- 1)))
      (<= (+ k 2) (+ N (- 1)))
      (<= 1 (+ N (- 1)))
      (<= (+ k 1) (+ N (- 1)))
    )
    false
  )
))

(check-sat)